(set-logic QF_S)
(declare-fun I () String)
(declare-fun K () String)
(declare-fun H () String)
(declare-fun V () String)
(declare-fun G () String)
(declare-fun R () String)
(declare-fun F () String)
(declare-fun L () String)
(declare-fun M () String)
(declare-fun P () String)
(assert (= (str.++  G G G G "a" G I "a" G G G G "a" G I "b" K "a" L L "ba" P "b" V)  (str.++  "a" H F G M "a" M "ab" R R "b" R R "baa") ))
(check-sat)
(get-model)
